sat
(:max-memory         18.05
 :memory             17.95
 :nlsat-conflicts    9
 :nlsat-decisions    3
 :nlsat-propagations 47
 :nlsat-stages       9
 :num-allocs         31122
 :rlimit-count       3152
 :time               0.00
 :total-time         0.01)
